RT is False
Default write of storage_offers_DA.csv just to have a file (but constraint should be inactive)
Reading model...
...model read.
creating competitive generators file...
...competitive generators recorded.
Loading data...
.. day-ahead data with real-time VRE data read.
Compiling instance...
...instance created.
Creating Offer Mitigation (model will solve as dispatch if TRUE)...
NOTE: storage offers will not be mitigated
...storage offer mitigation file created
Converting model to MPEC...
...converted
NOTE: initial MIP solve with only storage competitive to get feasible solution
Solving...

Welcome to IBM(R) ILOG(R) CPLEX(R) Interactive Optimizer 12.9.0.0
  with Simplex, Mixed Integer & Barrier Optimizers
5725-A06 5725-A29 5724-Y48 5724-Y49 5724-Y54 5724-Y55 5655-Y21
Copyright IBM Corp. 1988, 2019.  All Rights Reserved.

Type 'help' for a list of available commands.
Type 'help' followed by a command name for more
information on commands.

CPLEX> Logfile 'cplex.log' closed.
Logfile 'C:\Users\Luke\Desktop\test919\logs\tmpf38_a981.cplex.log' open.
CPLEX> New value for parallel optimization mode: -1
CPLEX> New value for mixed integer optimality gap tolerance: 0.01
CPLEX> New value for integrality tolerance: 1e-09
CPLEX> New value for feasibility tolerance: 0.01
CPLEX> New value for deterministic time limit in ticks: 75000
CPLEX> Problem 'C:\Users\Luke\Desktop\test919\logs\tmpsywduya2.pyomo.lp' read.
Read time = 0.19 sec. (14.73 ticks)
CPLEX> Problem name         : C:\Users\Luke\Desktop\test919\logs\tmpsywduya2.pyomo.lp
Objective sense      : Maximize
Variables            :   53805  [Nneg: 1,  Box: 22000,  Free: 4464,
                                 Binary: 27340]
Objective nonzeros   :    9076
Linear constraints   :  123205  [Less: 41346,  Greater: 59096,  Equal: 22763]
  Nonzeros           :  291703
  RHS nonzeros       :   67489

Variables            : Min LB: -5000.000        Max UB: 1000000.       
Objective nonzeros   : Min   : 0.7833333        Max   : 2500.000       
Linear constraints   :
  Nonzeros           : Min   : 0.7833333        Max   : 1000000.       
  RHS nonzeros       : Min   : 0.7833333        Max   : 1000000.       
CPLEX> CPXPARAM_Parallel                                -1
CPXPARAM_Simplex_Tolerances_Feasibility          0.01
CPXPARAM_DetTimeLimit                            75000
CPXPARAM_MIP_Tolerances_MIPGap                   0.01
CPXPARAM_MIP_Tolerances_Integrality              1.0000000000000001e-09
Tried aggregator 3 times.
MIP Presolve eliminated 88737 rows and 19085 columns.
MIP Presolve added 3353 rows and 0 columns.
MIP Presolve modified 24732 coefficients.
Aggregator did 12932 substitutions.
Reduced MIP has 24889 rows, 21232 columns, and 70967 nonzeros.
Reduced MIP has 8395 binaries, 0 generals, 0 SOSs, and 0 indicators.
Presolve time = 0.23 sec. (173.22 ticks)
Probing fixed 394 vars, tightened 2875 bounds.
Probing time = 1.48 sec. (882.51 ticks)
Tried aggregator 2 times.
MIP Presolve eliminated 895 rows and 790 columns.
MIP Presolve modified 2232 coefficients.
Aggregator did 40 substitutions.
Reduced MIP has 23954 rows, 20402 columns, and 68257 nonzeros.
Reduced MIP has 8001 binaries, 0 generals, 0 SOSs, and 0 indicators.
Presolve time = 0.09 sec. (68.88 ticks)
Probing time = 0.03 sec. (16.41 ticks)
Clique table members: 6330.
MIP emphasis: balance optimality and feasibility.
MIP search method: dynamic search.
Parallel mode: opportunistic, using up to 24 threads.
Root relaxation solution time = 0.39 sec. (505.08 ticks)

        Nodes                                         Cuts/
   Node  Left     Objective  IInf  Best Integer    Best Bound    ItCnt     Gap

      0     0      -26.0213   963                    -26.0213     4222         
      0     0      -26.1406    14                    Cuts: 39     4239         
      0     0      -26.1406    13                 Flowcuts: 6     4243         
      0     0      -26.1406     6                 Flowcuts: 1     4244         
      0     5    infeasible                       Impl Bds: 1     4274         
Elapsed time = 8.16 sec. (4908.47 ticks, tree = 0.02 MB, solutions = 0)
*    42+    9                         -451.5755     -191.9669            57.49%
*    83    17      integral     0     -191.9669     -191.9669     5699    0.00%

Implied bound cuts applied:  1
Flow cuts applied:  25
Gomory fractional cuts applied:  15

Root node processing (before b&c):
  Real time             =    7.78 sec. (4896.51 ticks)
Parallel b&c, 24 threads:
  Real time             =    0.67 sec. (322.50 ticks)
  Sync time (average)   =    0.21 sec.
  Wait time (average)   =    0.00 sec.
                          ------------
Total (root+branch&cut) =    8.45 sec. (5219.01 ticks)

Solution pool: 3 solutions saved.

MIP - Integer optimal solution:  Objective = -1.9196693316e+02
Solution time =    8.45 sec.  Iterations = 6499  Nodes = 89
Deterministic time = 5219.17 ticks  (617.43 ticks/sec)

CPLEX> Incumbent solution written to file 'C:\Users\Luke\Desktop\test919\logs\tmpi8g5_9ji.cplex.sol'.
CPLEX> NOTE: no warmstart specified for MIP iteration, default behavior is true
NOTE: resolving with all competitive generators using storage-only solution to warmstart
Solving...

Welcome to IBM(R) ILOG(R) CPLEX(R) Interactive Optimizer 12.9.0.0
  with Simplex, Mixed Integer & Barrier Optimizers
5725-A06 5725-A29 5724-Y48 5724-Y49 5724-Y54 5724-Y55 5655-Y21
Copyright IBM Corp. 1988, 2019.  All Rights Reserved.

Type 'help' for a list of available commands.
Type 'help' followed by a command name for more
information on commands.

CPLEX> Logfile 'cplex.log' closed.
Logfile 'C:\Users\Luke\Desktop\test919\logs\tmpa3y11it1.cplex.log' open.
CPLEX> New value for parallel optimization mode: -1
CPLEX> New value for mixed integer optimality gap tolerance: 0.01
CPLEX> New value for integrality tolerance: 1e-09
CPLEX> New value for feasibility tolerance: 0.01
CPLEX> New value for deterministic time limit in ticks: 75000
CPLEX> Problem 'C:\Users\Luke\Desktop\test919\logs\tmpwfx487na.pyomo.lp' read.
Read time = 0.22 sec. (14.75 ticks)
CPLEX> MIP start file 'C:\Users\Luke\Desktop\test919\logs\tmpxftsuid0.cplex.mst' read.
CPLEX> Problem name         : C:\Users\Luke\Desktop\test919\logs\tmpwfx487na.pyomo.lp
Objective sense      : Maximize
Variables            :   54525  [Nneg: 1,  Box: 22720,  Free: 4464,
                                 Binary: 27340]
Objective nonzeros   :    9796
Linear constraints   :  123205  [Less: 41346,  Greater: 59096,  Equal: 22763]
  Nonzeros           :  291703
  RHS nonzeros       :   67489

Variables            : Min LB: -5000.000        Max UB: 1000000.       
Objective nonzeros   : Min   : 0.7833333        Max   : 2500.000       
Linear constraints   :
  Nonzeros           : Min   : 0.7833333        Max   : 1000000.       
  RHS nonzeros       : Min   : 0.7833333        Max   : 1000000.       
CPLEX> CPXPARAM_Parallel                                -1
CPXPARAM_Simplex_Tolerances_Feasibility          0.01
CPXPARAM_DetTimeLimit                            75000
CPXPARAM_MIP_Tolerances_MIPGap                   0.01
CPXPARAM_MIP_Tolerances_Integrality              1.0000000000000001e-09
Warning:  No solution found from 1 MIP starts.
Retaining values of one MIP start for possible repair.
Tried aggregator 3 times.
MIP Presolve eliminated 88737 rows and 19805 columns.
MIP Presolve added 3353 rows and 0 columns.
MIP Presolve modified 24732 coefficients.
Aggregator did 12932 substitutions.
Reduced MIP has 24889 rows, 21232 columns, and 70967 nonzeros.
Reduced MIP has 8395 binaries, 0 generals, 0 SOSs, and 0 indicators.
Presolve time = 0.23 sec. (173.58 ticks)
Probing fixed 394 vars, tightened 2875 bounds.
Probing time = 1.50 sec. (882.51 ticks)
Tried aggregator 2 times.
MIP Presolve eliminated 895 rows and 790 columns.
MIP Presolve modified 2232 coefficients.
Aggregator did 40 substitutions.
Reduced MIP has 23954 rows, 20402 columns, and 68257 nonzeros.
Reduced MIP has 8001 binaries, 0 generals, 0 SOSs, and 0 indicators.
Presolve time = 0.11 sec. (68.88 ticks)
Probing time = 0.03 sec. (16.41 ticks)
Clique table members: 6330.
MIP emphasis: balance optimality and feasibility.
MIP search method: dynamic search.
Parallel mode: opportunistic, using up to 24 threads.
Root relaxation solution time = 0.41 sec. (505.08 ticks)

        Nodes                                         Cuts/
   Node  Left     Objective  IInf  Best Integer    Best Bound    ItCnt     Gap

      0     0      -26.0213   963                    -26.0213     4222         
      0     0      -26.1406    14                    Cuts: 39     4239         
      0     0      -26.1406    13                 Flowcuts: 6     4243         
      0     0      -26.1406     6                 Flowcuts: 1     4244         
Repair heuristic found nothing.
      0     5    infeasible                       Impl Bds: 1     4274         
Elapsed time = 8.41 sec. (4950.83 ticks, tree = 0.02 MB, solutions = 0)
*    29+   28                         -639.0916     -148.3581            76.79%
*    46    15      integral     0     -191.9669     -148.3581     5012   22.72%

Cover cuts applied:  2
Implied bound cuts applied:  1
Flow cuts applied:  25
Gomory fractional cuts applied:  15

Root node processing (before b&c):
  Real time             =    8.00 sec. (4938.18 ticks)
Parallel b&c, 24 threads:
  Real time             =    0.64 sec. (166.48 ticks)
  Sync time (average)   =    0.22 sec.
  Wait time (average)   =    0.00 sec.
                          ------------
Total (root+branch&cut) =    8.64 sec. (5104.67 ticks)

Solution pool: 2 solutions saved.

MIP - Integer optimal solution:  Objective = -1.9196693316e+02
Solution time =    8.67 sec.  Iterations = 6090  Nodes = 67
Deterministic time = 5104.82 ticks  (588.66 ticks/sec)

CPLEX> Incumbent solution written to file 'C:\Users\Luke\Desktop\test919\logs\tmp5i3h2bko.cplex.sol'.
CPLEX> Exporting results... 
